(set-option :smt.arith.nl true)
(set-option :smt.arith.nl.order true)
(declare-fun npc_x_2 () Real)
(declare-fun npc_x_3 () Real)
(declare-fun npc_y_2 () Real)
(declare-fun npc_y_3 () Real)
(declare-fun npc_x_1 () Real)
(declare-fun npc_x_0 () Real)
(declare-fun npc_y_1 () Real)
(declare-fun npc_y_0 () Real)
(assert (let ((a!1 (exists ((x Real) (y Real))
             (let ((a!1 (/ (+ npc_y_0 (* (- 1.0) npc_y_3))
                           (+ npc_x_0 (* (- 1.0) npc_x_3))))
                   (a!4 (not (<= (/ 1565290545404358055461763502430489.0
                                    10000000000000000000000000000000.0)
                                 (+ (* (- (/ 3999792814003399.0
                                             100000000000000000.0))
                                       y)
                                    x))))
                   (a!5 (not (<= (/ 25126913804612895201086430907879.0
                                    20000000000000000000000000000.0)
                                 (+ (* (/ 12500647489777869.0 500000000000000.0)
                                       y)
                                    x))))
                   (a!6 (/ (+ npc_y_1 (* (- 1.0) npc_y_0))
                           (+ npc_x_1 (* (- 1.0) npc_x_0))))
                   (a!9 (/ (+ npc_y_2 (* (- 1.0) npc_y_1))
                           (+ npc_x_2 (* (- 1.0) npc_x_1))))
                   (a!12 (/ (+ npc_y_3 (* (- 1.0) npc_y_2))
                            (+ npc_x_3 (* (- 1.0) npc_x_2)))))
             (let ((a!2 (+ (* a!1
                              (+ (* (/ 3.0 4.0) npc_y_3)
                                 (* (- (/ 1.0 4.0)) npc_y_0)
                                 (* (- (/ 1.0 4.0)) npc_y_1)
                                 (* (- (/ 1.0 4.0)) npc_y_2)))
                           (* (- (/ 3.0 4.0)) npc_x_3)
                           (* (/ 1.0 4.0) npc_x_0)
                           (* (/ 1.0 4.0) npc_x_1)
                           (* (/ 1.0 4.0) npc_x_2)))
                   (a!3 (+ (* (+ npc_y_3 (* (- 1.0) y)) a!1)
                           (* (- 1.0) npc_x_3)
                           x))
                   (a!7 (+ (* a!6
                              (+ (* (/ 3.0 4.0) npc_y_0)
                                 (* (- (/ 1.0 4.0)) npc_y_1)
                                 (* (- (/ 1.0 4.0)) npc_y_2)
                                 (* (- (/ 1.0 4.0)) npc_y_3)))
                           (* (- (/ 3.0 4.0)) npc_x_0)
                           (* (/ 1.0 4.0) npc_x_1)
                           (* (/ 1.0 4.0) npc_x_2)
                           (* (/ 1.0 4.0) npc_x_3)))
                   (a!8 (+ (* (+ npc_y_0 (* (- 1.0) y)) a!6)
                           (* (- 1.0) npc_x_0)
                           x))
                   (a!10 (+ (* a!9
                               (+ (* (/ 3.0 4.0) npc_y_1)
                                  (* (- (/ 1.0 4.0)) npc_y_0)
                                  (* (- (/ 1.0 4.0)) npc_y_2)
                                  (* (- (/ 1.0 4.0)) npc_y_3)))
                            (* (- (/ 3.0 4.0)) npc_x_1)
                            (* (/ 1.0 4.0) npc_x_0)
                            (* (/ 1.0 4.0) npc_x_2)
                            (* (/ 1.0 4.0) npc_x_3)))
                   (a!11 (+ (* (+ npc_y_1 (* (- 1.0) y)) a!9)
                            (* (- 1.0) npc_x_1)
                            x))
                   (a!13 (+ (* a!12
                               (+ (* (/ 3.0 4.0) npc_y_2)
                                  (* (- (/ 1.0 4.0)) npc_y_0)
                                  (* (- (/ 1.0 4.0)) npc_y_1)
                                  (* (- (/ 1.0 4.0)) npc_y_3)))
                            (* (- (/ 3.0 4.0)) npc_x_2)
                            (* (/ 1.0 4.0) npc_x_0)
                            (* (/ 1.0 4.0) npc_x_1)
                            (* (/ 1.0 4.0) npc_x_3)))
                   (a!14 (+ (* (+ npc_y_2 (* (- 1.0) y)) a!12)
                            (* (- 1.0) npc_x_2)
                            x)))
               (and (or (not (>= a!2 0.0)) (>= a!3 0.0))
                    (or (not (<= 0.0 a!3)) (<= 0.0 a!2))
                    (>= (+ (* (- (/ 3999792814003399.0 100000000000000000.0)) y)
                           x)
                        (/ 7739881701546271634690450633146487.0
                           50000000000000000000000000000000.0))
                    (>= (+ (* (/ 12500647489777869.0 500000000000000.0) y) x)
                        (/ 56917215935069965745077052808711.0
                           50000000000000000000000000000.0))
                    a!4
                    a!5
                    (<= npc_x_0
                        (/ 7759121280467152853700809675327031.0
                           50000000000000000000000000000000.0))
                    (>= npc_x_0
                        (/ 2319602763520597561102429025981093.0
                           20000000000000000000000000000000.0))
                    (= npc_y_0
                       (+ (/ 230144639906309580821529237820069.0
                             6249914318323135625000000000000.0)
                          (* (/ 1522471138741821.0 1249982863664627125.0)
                             npc_x_0)))
                    (= npc_x_1
                       (+ (/ 32856750488281.0 20000000000000.0) npc_x_0))
                    (= npc_y_1
                       (+ (/ 230157109027054209453021811587969.0
                             6249914318323135625000000000000.0)
                          (* (/ 1522471138741821.0 1249982863664627125.0)
                             npc_x_0)))
                    (= npc_x_2
                       (+ (/ 82118988037109.0 50000000000000.0) npc_x_0))
                    (= npc_y_2
                       (+ (/ 232485306059705012962337343288819.0
                             6249914318323135625000000000000.0)
                          (* (/ 1522471138741821.0 1249982863664627125.0)
                             npc_x_0)))
                    (= npc_x_3
                       (+ (- (/ 4577636719.0 10000000000000.0)) npc_x_0))
                    (= npc_y_3
                       (+ (/ 464945673877920718662374992456753.0
                             12499828636646271250000000000000.0)
                          (* (/ 1522471138741821.0 1249982863664627125.0)
                             npc_x_0)))
                    (or (not (>= a!7 0.0)) (>= a!8 0.0))
                    (or (not (<= 0.0 a!8)) (<= 0.0 a!7))
                    (or (not (>= a!10 0.0)) (>= a!11 0.0))
                    (or (not (<= 0.0 a!11)) (<= 0.0 a!10))
                    (or (not (>= a!13 0.0)) (>= a!14 0.0))
                    (or (<= 0.0 a!13) (not (<= 0.0 a!14))))))))
      (a!2 (exists ((x Real) (y Real))
             (let ((a!1 (/ (+ npc_y_0 (* (- 1.0) npc_y_3))
                           (+ npc_x_0 (* (- 1.0) npc_x_3))))
                   (a!4 (not (<= (/ 392102525160291967799229917673461.0
                                    2500000000000000000000000000000.0)
                                 (+ (* (- (/ 913597312043843.0
                                             25000000000000000.0))
                                       y)
                                    x))))
                   (a!5 (not (<= (/ 4080750524911757210596413745147.0
                                    3125000000000000000000000000.0)
                                 (+ (* (/ 3420544214396883.0 125000000000000.0)
                                       y)
                                    x))))
                   (a!6 (/ (+ npc_y_1 (* (- 1.0) npc_y_0))
                           (+ npc_x_1 (* (- 1.0) npc_x_0))))
                   (a!9 (/ (+ npc_y_2 (* (- 1.0) npc_y_1))
                           (+ npc_x_2 (* (- 1.0) npc_x_1))))
                   (a!12 (/ (+ npc_y_3 (* (- 1.0) npc_y_2))
                            (+ npc_x_3 (* (- 1.0) npc_x_2)))))
             (let ((a!2 (+ (* a!1
                              (+ (* (/ 3.0 4.0) npc_y_3)
                                 (* (- (/ 1.0 4.0)) npc_y_0)
                                 (* (- (/ 1.0 4.0)) npc_y_1)
                                 (* (- (/ 1.0 4.0)) npc_y_2)))
                           (* (- (/ 3.0 4.0)) npc_x_3)
                           (* (/ 1.0 4.0) npc_x_0)
                           (* (/ 1.0 4.0) npc_x_1)
                           (* (/ 1.0 4.0) npc_x_2)))
                   (a!3 (+ (* (+ npc_y_3 (* (- 1.0) y)) a!1)
                           (* (- 1.0) npc_x_3)
                           x))
                   (a!7 (+ (* a!6
                              (+ (* (/ 3.0 4.0) npc_y_0)
                                 (* (- (/ 1.0 4.0)) npc_y_1)
                                 (* (- (/ 1.0 4.0)) npc_y_2)
                                 (* (- (/ 1.0 4.0)) npc_y_3)))
                           (* (- (/ 3.0 4.0)) npc_x_0)
                           (* (/ 1.0 4.0) npc_x_1)
                           (* (/ 1.0 4.0) npc_x_2)
                           (* (/ 1.0 4.0) npc_x_3)))
                   (a!8 (+ (* (+ npc_y_0 (* (- 1.0) y)) a!6)
                           (* (- 1.0) npc_x_0)
                           x))
                   (a!10 (+ (* a!9
                               (+ (* (/ 3.0 4.0) npc_y_1)
                                  (* (- (/ 1.0 4.0)) npc_y_0)
                                  (* (- (/ 1.0 4.0)) npc_y_2)
                                  (* (- (/ 1.0 4.0)) npc_y_3)))
                            (* (- (/ 3.0 4.0)) npc_x_1)
                            (* (/ 1.0 4.0) npc_x_0)
                            (* (/ 1.0 4.0) npc_x_2)
                            (* (/ 1.0 4.0) npc_x_3)))
                   (a!11 (+ (* (+ npc_y_1 (* (- 1.0) y)) a!9)
                            (* (- 1.0) npc_x_1)
                            x))
                   (a!13 (+ (* a!12
                               (+ (* (/ 3.0 4.0) npc_y_2)
                                  (* (- (/ 1.0 4.0)) npc_y_0)
                                  (* (- (/ 1.0 4.0)) npc_y_1)
                                  (* (- (/ 1.0 4.0)) npc_y_3)))
                            (* (- (/ 3.0 4.0)) npc_x_2)
                            (* (/ 1.0 4.0) npc_x_0)
                            (* (/ 1.0 4.0) npc_x_1)
                            (* (/ 1.0 4.0) npc_x_3)))
                   (a!14 (+ (* (+ npc_y_2 (* (- 1.0) y)) a!12)
                            (* (- 1.0) npc_x_2)
                            x)))
               (and (or (not (>= a!2 0.0)) (>= a!3 0.0))
                    (or (not (<= 0.0 a!3)) (<= 0.0 a!2))
                    (>= (+ (* (- (/ 913597312043843.0 25000000000000000.0)) y)
                           x)
                        (/ 387687400255764711385576491390819.0
                           2500000000000000000000000000000.0))
                    (>= (+ (* (/ 3420544214396883.0 125000000000000.0) y) x)
                        (/ 3675722066888519971166874759183.0
                           3125000000000000000000000000.0))
                    a!4
                    a!5
                    (<= npc_x_0
                        (/ 7809120595013737938700809675327031.0
                           50000000000000000000000000000000.0))
                    (>= npc_x_0
                        (/ 2469600707160352816102429025981093.0
                           20000000000000000000000000000000.0))
                    (= npc_y_0
                       (+ (/ 230144639906309580821529237820069.0
                             6249914318323135625000000000000.0)
                          (* (/ 1522471138741821.0 1249982863664627125.0)
                             npc_x_0)))
                    (= npc_x_1
                       (+ (/ 32856750488281.0 20000000000000.0) npc_x_0))
                    (= npc_y_1
                       (+ (/ 230157109027054209453021811587969.0
                             6249914318323135625000000000000.0)
                          (* (/ 1522471138741821.0 1249982863664627125.0)
                             npc_x_0)))
                    (= npc_x_2
                       (+ (/ 82118988037109.0 50000000000000.0) npc_x_0))
                    (= npc_y_2
                       (+ (/ 232485306059705012962337343288819.0
                             6249914318323135625000000000000.0)
                          (* (/ 1522471138741821.0 1249982863664627125.0)
                             npc_x_0)))
                    (= npc_x_3
                       (+ (- (/ 4577636719.0 10000000000000.0)) npc_x_0))
                    (= npc_y_3
                       (+ (/ 464945673877920718662374992456753.0
                             12499828636646271250000000000000.0)
                          (* (/ 1522471138741821.0 1249982863664627125.0)
                             npc_x_0)))
                    (or (not (>= a!7 0.0)) (>= a!8 0.0))
                    (or (not (<= 0.0 a!8)) (<= 0.0 a!7))
                    (or (not (>= a!10 0.0)) (>= a!11 0.0))
                    (or (not (<= 0.0 a!11)) (<= 0.0 a!10))
                    (or (not (>= a!13 0.0)) (>= a!14 0.0))
                    (or (<= 0.0 a!13) (not (<= 0.0 a!14)))))))))
  (or a!1 a!2)))
(check-sat)

